NAME : X_38_seed_123_id_13
TYPE : CVRP
DIMENSION : 275
EDGE_WEIGHT_TYPE : EUC_2D
CAPACITY : 10
NODE_COORD_SECTION
1	890	792
2	496	549
3	368	156
4	945	630
5	656	79
6	296	196
7	914	616
8	485	26
9	525	516
10	945	623
11	525	560
12	379	129
13	537	556
14	428	239
15	420	134
16	842	606
17	386	138
18	434	444
19	501	164
20	883	612
21	306	529
22	383	78
23	483	536
24	419	649
25	979	647
26	303	69
27	881	631
28	993	581
29	297	136
30	910	674
31	366	175
32	950	603
33	522	585
34	413	201
35	998	767
36	422	252
37	921	630
38	390	136
39	359	107
40	262	169
41	489	513
42	487	472
43	465	473
44	441	107
45	428	543
46	988	677
47	401	598
48	533	493
49	374	563
50	930	643
51	402	118
52	571	573
53	407	149
54	460	580
55	374	191
56	474	558
57	471	653
58	976	614
59	597	445
60	999	616
61	355	208
62	367	156
63	505	543
64	351	188
65	15	139
66	463	601
67	384	212
68	527	515
69	529	500
70	512	545
71	520	410
72	420	706
73	960	579
74	955	635
75	261	127
76	296	230
77	368	120
78	364	203
79	976	625
80	498	559
81	235	183
82	940	653
83	960	700
84	469	582
85	918	637
86	959	624
87	601	473
88	921	634
89	276	552
90	330	144
91	451	71
92	430	185
93	368	126
94	292	115
95	595	465
96	909	647
97	436	248
98	406	225
99	384	207
100	554	541
101	944	626
102	677	440
103	890	650
104	932	638
105	489	525
106	349	206
107	503	575
108	362	241
109	335	160
110	891	475
111	301	224
112	935	766
113	981	634
114	463	580
115	525	572
116	889	654
117	557	532
118	512	572
119	296	770
120	473	410
121	536	487
122	904	495
123	973	613
124	600	552
125	956	639
126	304	68
127	351	135
128	893	566
129	476	205
130	358	240
131	463	581
132	426	69
133	970	659
134	975	654
135	324	210
136	970	630
137	465	105
138	321	217
139	949	640
140	470	484
141	597	598
142	595	482
143	446	697
144	509	577
145	366	185
146	519	588
147	339	203
148	586	522
149	365	139
150	951	678
151	935	639
152	530	608
153	901	568
154	291	177
155	481	506
156	367	137
157	453	219
158	968	673
159	293	151
160	432	520
161	438	534
162	998	730
163	430	134
164	250	242
165	885	603
166	320	302
167	442	199
168	976	640
169	285	240
170	248	128
171	907	578
172	923	579
173	519	542
174	382	292
175	433	561
176	941	598
177	438	547
178	468	505
179	503	577
180	330	254
181	388	206
182	632	534
183	940	585
184	734	687
185	391	155
186	920	663
187	386	153
188	435	419
189	392	156
190	325	153
191	913	516
192	367	251
193	341	108
194	418	485
195	494	281
196	918	566
197	959	608
198	476	535
199	926	873
200	930	598
201	499	570
202	944	654
203	435	592
204	387	196
205	568	286
206	362	177
207	359	145
208	460	544
209	543	502
210	509	593
211	340	232
212	473	193
213	419	612
214	477	567
215	521	498
216	919	681
217	871	643
218	961	682
219	951	679
220	502	541
221	943	659
222	956	619
223	985	764
224	424	151
225	344	186
226	445	121
227	549	585
228	340	219
229	299	162
230	439	122
231	462	539
232	626	545
233	546	551
234	954	538
235	398	158
236	943	628
237	845	720
238	391	105
239	916	632
240	410	106
241	380	191
242	212	33
243	287	232
244	462	417
245	400	671
246	343	129
247	422	226
248	832	742
249	403	174
250	395	386
251	516	465
252	573	492
253	396	502
254	487	394
255	515	555
256	868	606
257	479	515
258	384	181
259	380	159
260	403	118
261	507	583
262	357	294
263	473	616
264	896	666
265	567	585
266	1000	551
267	355	190
268	868	582
269	321	176
270	423	625
271	521	551
272	960	612
273	469	554
274	973	667
275	288	255
DEMAND_SECTION
1	0
2	1
3	1
4	1
5	1
6	1
7	1
8	1
9	1
10	1
11	1
12	1
13	1
14	1
15	1
16	1
17	1
18	1
19	1
20	1
21	1
22	1
23	1
24	1
25	1
26	1
27	1
28	1
29	1
30	1
31	1
32	1
33	1
34	1
35	1
36	1
37	1
38	1
39	1
40	1
41	1
42	1
43	1
44	1
45	1
46	1
47	1
48	1
49	1
50	1
51	1
52	1
53	1
54	1
55	1
56	1
57	1
58	1
59	1
60	1
61	1
62	1
63	1
64	1
65	1
66	1
67	1
68	1
69	1
70	1
71	1
72	1
73	1
74	1
75	1
76	1
77	1
78	1
79	1
80	1
81	1
82	1
83	1
84	1
85	1
86	1
87	1
88	1
89	1
90	1
91	1
92	1
93	1
94	1
95	1
96	1
97	1
98	1
99	1
100	1
101	1
102	1
103	1
104	1
105	1
106	1
107	1
108	1
109	1
110	1
111	1
112	1
113	1
114	1
115	1
116	1
117	1
118	1
119	1
120	1
121	1
122	1
123	1
124	1
125	1
126	1
127	1
128	1
129	1
130	1
131	1
132	1
133	1
134	1
135	1
136	1
137	1
138	1
139	1
140	1
141	1
142	1
143	1
144	1
145	1
146	1
147	1
148	1
149	1
150	1
151	1
152	1
153	1
154	1
155	1
156	1
157	1
158	1
159	1
160	1
161	1
162	1
163	1
164	1
165	1
166	1
167	1
168	1
169	1
170	1
171	1
172	1
173	1
174	1
175	1
176	1
177	1
178	1
179	1
180	1
181	1
182	1
183	1
184	1
185	1
186	1
187	1
188	1
189	1
190	1
191	1
192	1
193	1
194	1
195	1
196	1
197	1
198	1
199	1
200	1
201	1
202	1
203	1
204	1
205	1
206	1
207	1
208	1
209	1
210	1
211	1
212	1
213	1
214	1
215	1
216	1
217	1
218	1
219	1
220	1
221	1
222	1
223	1
224	1
225	1
226	1
227	1
228	1
229	1
230	1
231	1
232	1
233	1
234	1
235	1
236	1
237	1
238	1
239	1
240	1
241	1
242	1
243	1
244	1
245	1
246	1
247	1
248	1
249	1
250	1
251	1
252	1
253	1
254	1
255	1
256	1
257	1
258	1
259	1
260	1
261	1
262	1
263	1
264	1
265	1
266	1
267	1
268	1
269	1
270	1
271	1
272	1
273	1
274	1
275	1
DEPOT_SECTION
1
-1
EOF
